c instance by G2
c solution = 1011111100000
c Known solution cost is 694 
p cnf 13 30
w 29 54 49 26 12 93 93 52 60 68 73 73 12
13 5 -4 0
-9 -10 8 0
2 1 11 0
8 1 -10 0
2 -6 -13 0
-1 -13 -8 0
-1 8 10 0
-1 7 12 0
-7 -12 2 0
2 4 13 0
-10 2 11 0
-11 2 -10 0
-9 -4 -10 0
-8 -4 -2 0
5 10 4 0
9 -11 -7 0
3 2 10 0
-7 8 -1 0
-12 6 7 0
1 -6 -2 0
3 -6 9 0
-11 -10 -8 0
-1 -13 -2 0
3 -6 -8 0
1 13 -11 0
7 12 2 0
6 2 5 0
-3 6 9 0
2 -10 9 0
-4 -9 2 0
